c generated by sgen3tocnf
c nLits = 636
c actual nVars = 101
c Command: sgen3tocnf 025 0 20 25 101 4 2 0 /dev/null
p cnf 101 212
-53 -69 -93 0
-53 -69 -97 0
-53 -93 -97 0
-69 -93 -97 0
-21 -29 -81 0
-21 -29 -89 0
-21 -81 -89 0
-29 -81 -89 0
-9 -25 -45 0
-9 -25 -94 0
-9 -45 -94 0
-25 -45 -94 0
-5 -17 -26 0
-5 -17 -90 0
-5 -26 -90 0
-17 -26 -90 0
-37 -57 -77 0
-37 -57 -91 0
-37 -77 -91 0
-57 -77 -91 0
-22 -46 -78 0
-22 -46 -85 0
-22 -78 -85 0
-46 -78 -85 0
-38 -49 -61 0
-38 -49 -70 0
-38 -61 -70 0
-49 -61 -70 0
-1 -41 -71 0
-1 -41 -92 0
-1 -71 -92 0
-41 -71 -92 0
-6 -30 -42 0
-6 -30 -47 0
-6 -42 -47 0
-30 -42 -47 0
-31 -33 -65 0
-31 -33 -95 0
-31 -65 -95 0
-33 -65 -95 0
-27 -43 -58 0
-27 -43 -66 0
-27 -58 -66 0
-43 -58 -66 0
-2 -13 -23 0
-2 -13 -34 0
-2 -23 -34 0
-13 -23 -34 0
-14 -18 -44 0
-14 -18 -62 0
-14 -44 -62 0
-18 -44 -62 0
-7 -35 -54 0
-7 -35 -86 0
-7 -54 -86 0
-35 -54 -86 0
-39 -55 -67 0
-39 -55 -73 0
-39 -67 -73 0
-55 -67 -73 0
-10 -50 -68 0
-10 -50 -98 0
-10 -68 -98 0
-50 -68 -98 0
-11 -36 -72 0
-11 -36 -74 0
-11 -72 -74 0
-36 -72 -74 0
-8 -15 -51 0
-8 -15 -59 0
-8 -51 -59 0
-15 -51 -59 0
-3 -19 -75 0
-3 -19 -79 0
-3 -75 -79 0
-19 -75 -79 0
-20 -40 -48 0
-20 -40 -82 0
-20 -48 -82 0
-40 -48 -82 0
-24 -60 -63 0
-24 -60 -99 0
-24 -63 -99 0
-60 -63 -99 0
-4 -52 -87 0
-4 -52 -96 0
-4 -87 -96 0
-52 -87 -96 0
-12 -16 -32 0
-12 -16 -80 0
-12 -32 -80 0
-16 -32 -80 0
-76 -83 -88 0
-76 -83 -100 0
-76 -88 -100 0
-83 -88 -100 0
-28 -56 -64 0
-28 -56 -84 0
-28 -56 -101 0
-28 -64 -84 0
-28 -64 -101 0
-28 -84 -101 0
-56 -64 -84 0
-56 -64 -101 0
-56 -84 -101 0
-64 -84 -101 0
1 2 3 0
1 2 4 0
1 3 4 0
2 3 4 0
5 6 7 0
5 6 8 0
5 7 8 0
6 7 8 0
9 10 11 0
9 10 12 0
9 11 12 0
10 11 12 0
13 14 15 0
13 14 16 0
13 15 16 0
14 15 16 0
17 18 19 0
17 18 20 0
17 19 20 0
18 19 20 0
21 22 23 0
21 22 24 0
21 23 24 0
22 23 24 0
25 26 27 0
25 26 28 0
25 27 28 0
26 27 28 0
29 30 31 0
29 30 32 0
29 31 32 0
30 31 32 0
33 34 35 0
33 34 36 0
33 35 36 0
34 35 36 0
37 38 39 0
37 38 40 0
37 39 40 0
38 39 40 0
41 42 43 0
41 42 44 0
41 43 44 0
42 43 44 0
45 46 47 0
45 46 48 0
45 47 48 0
46 47 48 0
49 50 51 0
49 50 52 0
49 51 52 0
50 51 52 0
53 54 55 0
53 54 56 0
53 55 56 0
54 55 56 0
57 58 59 0
57 58 60 0
57 59 60 0
58 59 60 0
61 62 63 0
61 62 64 0
61 63 64 0
62 63 64 0
65 66 67 0
65 66 68 0
65 67 68 0
66 67 68 0
69 70 71 0
69 70 72 0
69 71 72 0
70 71 72 0
73 74 75 0
73 74 76 0
73 75 76 0
74 75 76 0
77 78 79 0
77 78 80 0
77 78 101 0
77 79 80 0
77 79 101 0
77 80 101 0
78 79 80 0
78 79 101 0
78 80 101 0
79 80 101 0
81 82 83 0
81 82 84 0
81 83 84 0
82 83 84 0
85 86 87 0
85 86 88 0
85 87 88 0
86 87 88 0
89 90 91 0
89 90 92 0
89 91 92 0
90 91 92 0
93 94 95 0
93 94 96 0
93 95 96 0
94 95 96 0
97 98 99 0
97 98 100 0
97 99 100 0
98 99 100 0
